(declare-fun c () String)
(declare-fun g () String)
(declare-fun b () String)
(declare-fun d () String)
(declare-fun f () String)
(declare-fun a () String)
(declare-fun h () String)
(assert (= (str.++ "acf" a "a" c) (str.++ g "d")))
(assert (= (str.++ b f) (str.++ c f)))
(assert (= (str.++ h g) (str.++ d "e")))

(check-sat)
